solution status: optimal solution found
objective value:                                    0
$_144_z                                             6 	(obj:0)
$_219_y                                             7 	(obj:0)
$_219_z                                            12 	(obj:0)
$_187_y                                            11 	(obj:0)
$_187_z                                            16 	(obj:0)
$_70_y                                             -3 	(obj:0)
$_70_z                                              4 	(obj:0)
$_222_y                                             6 	(obj:0)
$_222_z                                            12 	(obj:0)
$_260_y                                             3 	(obj:0)
$_260_z                                             9 	(obj:0)
$_264_y                                             8 	(obj:0)
$_264_z                                            13 	(obj:0)
$_181_y                                             7 	(obj:0)
$_181_z                                            14 	(obj:0)
$_140_y                                            -1 	(obj:0)
$_140_z                                             6 	(obj:0)
$_178_y                                            11 	(obj:0)
$_178_z                                            13 	(obj:0)
$_287_y                                             4 	(obj:0)
$_287_z                                            10 	(obj:0)
$_223_y                                            10 	(obj:0)
$_223_z                                            16 	(obj:0)
$_263_y                                             4 	(obj:0)
$_263_z                                             9 	(obj:0)
$_145_y                                             8 	(obj:0)
$_145_z                                            14 	(obj:0)
$_269_y                                             3 	(obj:0)
$_269_z                                            10 	(obj:0)
$_141_y                                            11 	(obj:0)
$_141_z                                            12 	(obj:0)
$_228_y                                             7 	(obj:0)
$_228_z                                            13 	(obj:0)
$_146_y                                            15 	(obj:0)
$_146_z                                            16 	(obj:0)
$_48_y                                              9 	(obj:0)
$_48_z                                             10 	(obj:0)
$_182_y                                            11 	(obj:0)
$_182_z                                            18 	(obj:0)
